c Output_time 26.03.2020 18:15:09_+0100 1585242909353805568
c ** Program information **
c program_name                          "QBRG_debug"
c version                               "0.3.20"
c date                                  "25.3.2020"
c gid_id                                "673970833836058123f633335630c185360d632e"
c author                                "Oliver Kullmann"
c url                                   "https://github.com/OKullmann/oklibrary/blob/master/Satisfiability/Transformers/Generators/Random/QBRG.cpp"
c ** Machine information **
c machine_name                          "chyna-Lenovo-G50-70"
c bogomips                              3791.08
c ** Compilation information **
c compiler_version                      "g++ 7.5.0"
c compilation_date                      "Mar_26_2020 11:16:30"
c compilation_options                   "--std=c++17 -pedantic -fmax-errors=5 -Wall -Wextra -g -D_GLIBCXX_DEBUG"
c NDEBUG                                0
c OPTIMIZE                              0
c ** Parameters **
c command-line                          "./QBRG_debug" "a40 e40 a40 40" "96*1,1|2-2,1|3-3,1|4-4,1" "" "1,t" ""
c output                                "QuBlRaGe_160_96_1585242909341823621.qdimacs"
c options                               "filtered,renamed"
c num_quantifier_blocks                 4
c  quantifier_blocks                    1:a1-40 2:e41-80 3:a81-120 4:e121-160
c num_clause-blocks                     1
c  clause-blocks                        96 * {1-40,1,1/2} | {41-80,1,1/2} | {81-120,1,1/2} | {121-160,1,1/2}
c num_e-seeds                           37+2=39
c  e-seeds                              1 0 1 0 5 160 2 40 0 40 1 40 0 40 1 96 4 1 1 1 1 2 2 2 1 1 2 3 3 1 1 2 4 4 1 1 2 1 1585242909341823153
p cnf 145 96
a 1 2 3 4 5 6 7 8 9 10 11 12 13 14 15 16 17 18 19 20 21 22 23 24 25 26 27 28 29 30 31 32 33 34 35 36 37 38 0
e 39 40 41 42 43 44 45 46 47 48 49 50 51 52 53 54 55 56 57 58 59 60 61 62 63 64 65 66 67 68 69 70 71 72 73 0
a 74 75 76 77 78 79 80 81 82 83 84 85 86 87 88 89 90 91 92 93 94 95 96 97 98 99 100 101 102 103 104 105 106 107 108 109 0
e 110 111 112 113 114 115 116 117 118 119 120 121 122 123 124 125 126 127 128 129 130 131 132 133 134 135 136 137 138 139 140 141 142 143 144 145 0
-6 -71 89 110 0
-3 66 91 111 0
-13 -70 -92 111 0
1 56 -106 -112 0
-30 -56 -100 112 0
9 -53 100 -113 0
6 39 -96 113 0
31 -42 75 -114 0
-12 40 85 -114 0
13 56 -101 -115 0
6 -43 -99 115 0
-11 42 101 115 0
-25 -63 75 -116 0
-12 42 -93 -116 0
10 -41 -99 116 0
-13 -58 86 117 0
-31 -53 -97 117 0
-34 57 -89 -118 0
-33 50 94 -118 0
34 -53 90 118 0
-14 -69 -92 118 0
26 51 -96 118 0
35 70 92 -119 0
-36 51 96 -119 0
-37 -56 -87 119 0
19 72 -89 -120 0
-2 -41 -93 -120 0
10 -42 -77 120 0
7 -65 88 120 0
1 61 -82 -121 0
8 73 79 -122 0
21 -63 -74 122 0
36 -68 103 122 0
-30 -41 -85 123 0
-38 -59 -104 123 0
-16 -53 -105 123 0
6 -39 83 124 0
4 73 78 125 0
-12 57 -109 125 0
15 62 -77 -126 0
-7 60 -98 -126 0
-33 62 108 -126 0
36 64 -105 126 0
-36 -40 82 -127 0
29 -42 -90 127 0
6 -49 96 127 0
8 49 86 -128 0
-12 -59 -103 -128 0
28 43 -81 128 0
-27 -53 93 -129 0
33 -60 87 129 0
-24 43 96 129 0
-38 65 109 130 0
-35 -55 -77 -131 0
29 56 -95 -131 0
27 59 -108 -131 0
22 -47 -78 131 0
-28 -53 85 -132 0
26 67 101 -132 0
20 -62 -104 132 0
15 68 101 -133 0
19 70 -104 -133 0
-28 49 -95 -134 0
-3 -46 109 -134 0
4 58 -75 -135 0
18 -55 -93 -136 0
7 -52 94 -136 0
27 -53 -95 -136 0
-28 -58 104 -137 0
-21 45 92 137 0
12 -41 -95 138 0
37 -60 -84 139 0
35 66 -85 139 0
16 66 85 139 0
32 45 94 139 0
10 -59 76 -140 0
-36 -54 -85 -140 0
-23 -47 -104 -140 0
-5 -43 -90 140 0
29 68 107 140 0
-10 -65 -90 141 0
-9 72 91 141 0
-20 -50 -94 141 0
-23 -45 -78 -142 0
-32 -42 -100 -142 0
33 40 -96 142 0
-29 -55 -107 142 0
17 70 -100 -143 0
37 -64 -93 143 0
-8 -65 -107 -144 0
-34 65 -80 144 0
21 -56 87 144 0
16 -40 -102 144 0
9 48 92 -145 0
-3 44 83 145 0
-1 61 -90 145 0
